0 75
1 53
2 53
3 54
4 54
5 55
6 55
7 56
8 56
9 57
10 57
11 79
12 58
13 58
14 59
15 59
16 60
17 60
18 82
19 61
20 61
21 62
22 62
23 63
24 63
25 85
26 64
27 64
28 65
29 65
30 66
31 66
32 88
33 67
34 67
35 68
36 68
37 69
38 69
39 91
40 70
41 70
42 71
43 71
44 72
45 72
46 94
47 95
48 73
49 73
50 74
51 74
52 97
53 75
53 76
54 76
54 102
55 123
55 77
56 77
56 78
57 78
57 79
58 103
58 80
59 80
59 81
60 81
60 82
61 103
61 83
62 83
62 84
63 84
63 85
64 110
64 86
65 86
65 87
66 87
66 88
67 110
67 89
68 89
68 90
69 90
69 91
70 137
70 92
71 92
71 93
72 93
72 94
73 95
73 96
74 96
74 97
75 98
75 99
76 100
76 101
77 98
77 99
78 100
78 101
79 102
79 129
80 104
80 105
81 106
81 107
82 108
82 109
83 104
83 105
84 106
84 107
85 108
85 109
86 111
86 112
87 113
87 114
88 115
88 116
89 111
89 112
90 113
90 114
91 115
91 116
92 117
92 118
93 119
93 120
94 121
94 122
95 117
95 118
96 119
96 120
97 121
97 122
98 166
98 124
99 144
99 125
100 144
100 126
101 145
101 127
102 145
102 128
103 123
103 130
104 124
104 131
105 125
105 132
106 126
106 133
107 127
107 134
108 128
108 135
109 129
109 136
110 130
110 137
111 131
111 138
112 132
112 139
113 133
113 140
114 134
114 141
115 135
115 142
116 136
116 143
117 138
117 186
118 139
118 164
119 140
119 164
120 141
120 165
121 142
121 165
122 143
122 188
123 146
123 149
124 146
124 149
125 147
125 150
126 147
126 150
127 148
127 151
128 148
128 151
129 170
129 173
130 152
130 155
131 152
131 155
132 153
132 156
133 153
133 156
134 154
134 157
135 154
135 157
136 176
136 179
137 158
137 161
138 158
138 161
139 159
139 162
140 159
140 162
141 160
141 163
142 160
142 163
143 182
143 185
144 166
144 167
145 167
145 193
146 214
146 168
147 168
147 169
148 169
148 170
149 194
149 171
150 171
150 172
151 172
151 173
152 194
152 174
153 174
153 175
154 175
154 176
155 201
155 177
156 177
156 178
157 178
157 179
158 201
158 180
159 180
159 181
160 181
160 182
161 228
161 183
162 183
162 184
163 184
163 185
164 186
164 187
165 187
165 188
166 189
166 190
167 191
167 192
168 189
168 190
169 191
169 192
170 193
170 220
171 195
171 196
172 197
172 198
173 199
173 200
174 195
174 196
175 197
175 198
176 199
176 200
177 202
177 203
178 204
178 205
179 206
179 207
180 202
180 203
181 204
181 205
182 206
182 207
183 208
183 209
184 210
184 211
185 212
185 213
186 208
186 209
187 210
187 211
188 212
188 213
189 257
189 215
190 235
190 216
191 235
191 217
192 236
192 218
193 236
193 219
194 214
194 221
195 215
195 222
196 216
196 223
197 217
197 224
198 218
198 225
199 219
199 226
200 220
200 227
201 221
201 228
202 222
202 229
203 223
203 230
204 224
204 231
205 225
205 232
206 226
206 233
207 227
207 234
208 229
208 277
209 230
209 255
210 231
210 255
211 232
211 256
212 233
212 256
213 234
213 279
214 237
214 240
215 237
215 240
216 238
216 241
217 238
217 241
218 239
218 242
219 239
219 242
220 261
220 264
221 243
221 246
222 243
222 246
223 244
223 247
224 244
224 247
225 245
225 248
226 245
226 248
227 267
227 270
228 249
228 252
229 249
229 252
230 250
230 253
231 250
231 253
232 251
232 254
233 251
233 254
234 273
234 276
235 257
235 258
236 258
236 284
237 305
237 259
238 259
238 260
239 260
239 261
240 285
240 262
241 262
241 263
242 263
242 264
243 285
243 265
244 265
244 266
245 266
245 267
246 292
246 268
247 268
247 269
248 269
248 270
249 292
249 271
250 271
250 272
251 272
251 273
252 319
252 274
253 274
253 275
254 275
254 276
255 277
255 278
256 278
256 279
257 280
257 281
258 282
258 283
259 280
259 281
260 282
260 283
261 284
261 311
262 286
262 287
263 288
263 289
264 290
264 291
265 286
265 287
266 288
266 289
267 290
267 291
268 293
268 294
269 295
269 296
270 297
270 298
271 293
271 294
272 295
272 296
273 297
273 298
274 299
274 300
275 301
275 302
276 303
276 304
277 299
277 300
278 301
278 302
279 303
279 304
280 348
280 306
281 326
281 307
282 326
282 308
283 327
283 309
284 327
284 310
285 305
285 312
286 306
286 313
287 307
287 314
288 308
288 315
289 309
289 316
290 310
290 317
291 311
291 318
292 312
292 319
293 313
293 320
294 314
294 321
295 315
295 322
296 316
296 323
297 317
297 324
298 318
298 325
299 320
299 368
300 321
300 346
301 322
301 346
302 323
302 347
303 324
303 347
304 325
304 370
305 328
305 331
306 328
306 331
307 329
307 332
308 329
308 332
309 330
309 333
310 330
310 333
311 352
311 355
312 334
312 337
313 334
313 337
314 335
314 338
315 335
315 338
316 336
316 339
317 336
317 339
318 358
318 361
319 340
319 343
320 340
320 343
321 341
321 344
322 341
322 344
323 342
323 345
324 342
324 345
325 364
325 367
326 348
326 349
327 349
327 375
328 396
328 350
329 350
329 351
330 351
330 352
331 376
331 353
332 353
332 354
333 354
333 355
334 376
334 356
335 356
335 357
336 357
336 358
337 383
337 359
338 359
338 360
339 360
339 361
340 383
340 362
341 362
341 363
342 363
342 364
343 410
343 365
344 365
344 366
345 366
345 367
346 368
346 369
347 369
347 370
348 371
348 372
349 373
349 374
350 371
350 372
351 373
351 374
352 375
352 402
353 377
353 378
354 379
354 380
355 381
355 382
356 377
356 378
357 379
357 380
358 381
358 382
359 384
359 385
360 386
360 387
361 388
361 389
362 384
362 385
363 386
363 387
364 388
364 389
365 390
365 391
366 392
366 393
367 394
367 395
368 390
368 391
369 392
369 393
370 394
370 395
371 439
371 397
372 417
372 398
373 417
373 399
374 418
374 400
375 418
375 401
376 396
376 403
377 397
377 404
378 398
378 405
379 399
379 406
380 400
380 407
381 401
381 408
382 402
382 409
383 403
383 410
384 404
384 411
385 405
385 412
386 406
386 413
387 407
387 414
388 408
388 415
389 409
389 416
390 411
390 459
391 412
391 437
392 413
392 437
393 414
393 438
394 415
394 438
395 416
395 461
396 419
396 422
397 419
397 422
398 420
398 423
399 420
399 423
400 421
400 424
401 421
401 424
402 443
402 446
403 425
403 428
404 425
404 428
405 426
405 429
406 426
406 429
407 427
407 430
408 427
408 430
409 449
409 452
410 431
410 434
411 431
411 434
412 432
412 435
413 432
413 435
414 433
414 436
415 433
415 436
416 455
416 458
417 439
417 440
418 440
418 466
419 487
419 441
420 441
420 442
421 442
421 443
422 467
422 444
423 444
423 445
424 445
424 446
425 467
425 447
426 447
426 448
427 448
427 449
428 474
428 450
429 450
429 451
430 451
430 452
431 474
431 453
432 453
432 454
433 454
433 455
434 501
434 456
435 456
435 457
436 457
436 458
437 459
437 460
438 460
438 461
439 462
439 463
440 464
440 465
441 462
441 463
442 464
442 465
443 466
443 493
444 468
444 469
445 470
445 471
446 472
446 473
447 468
447 469
448 470
448 471
449 472
449 473
450 475
450 476
451 477
451 478
452 479
452 480
453 475
453 476
454 477
454 478
455 479
455 480
456 481
456 482
457 483
457 484
458 485
458 486
459 481
459 482
460 483
460 484
461 485
461 486
462 508
462 488
463 509
463 489
464 510
464 490
465 511
465 491
466 512
466 492
467 487
467 494
468 488
468 495
469 489
469 496
470 490
470 497
471 491
471 498
472 492
472 499
473 493
473 500
474 494
474 501
475 495
475 502
476 496
476 503
477 497
477 504
478 498
478 505
479 499
479 506
480 500
480 507
481 502
481 555
482 503
482 556
483 504
483 557
484 505
484 558
485 506
485 559
486 507
486 560
487 513
487 520
488 514
488 521
489 515
489 522
490 516
490 523
491 517
491 524
492 518
492 525
493 519
493 526
494 527
494 534
495 528
495 535
496 529
496 536
497 530
497 537
498 531
498 538
499 532
499 539
500 533
500 540
501 541
501 548
502 542
502 549
503 543
503 550
504 544
504 551
505 545
505 552
506 546
506 553
507 547
507 554
