p tw 32 154
1 3
1 15
1 20
1 29
1 21
1 17
1 14
1 6
1 13
1 4
1 24
1 2
1 18
1 8
1 10
1 11
1 12
1 25
2 19
2 12
2 6
2 11
2 22
2 13
2 5
2 18
2 8
2 7
2 14
2 25
2 4
2 16
2 17
2 29
2 10
3 21
3 12
3 24
3 20
3 18
3 17
3 5
3 11
4 11
4 6
4 8
4 15
4 10
4 5
4 16
4 29
4 9
4 17
5 30
5 23
5 13
5 29
5 17
5 31
5 15
5 11
6 8
6 17
6 18
6 7
6 15
6 26
6 25
6 13
7 18
7 31
7 9
7 11
7 12
7 14
7 10
7 13
7 25
7 20
7 29
7 22
8 12
8 13
8 20
8 19
8 29
8 18
8 21
9 14
9 24
9 27
9 28
9 15
9 30
9 29
10 19
10 32
10 16
10 21
10 12
11 19
11 28
11 25
11 22
12 20
12 28
12 25
12 29
13 23
13 18
13 24
13 26
13 25
13 32
14 32
14 28
14 20
14 17
14 31
15 26
15 31
15 24
15 20
16 26
16 18
16 25
16 30
16 27
16 29
16 22
16 23
17 22
17 26
17 30
17 18
18 23
18 29
18 21
19 23
19 24
19 20
20 29
20 22
21 31
21 27
22 26
22 29
23 27
24 30
25 30
25 32
26 28
26 27
27 28
