p tw 372 741
1 242
1 124
1 297
1 320
2 311
2 56
2 219
2 307
3 23
3 123
3 330
3 146
4 292
4 120
4 332
4 293
5 137
5 152
5 249
5 198
6 325
6 287
6 253
6 271
7 334
7 110
7 371
7 164
8 240
8 236
8 225
8 331
9 135
9 231
9 99
9 37
10 295
10 215
10 199
10 128
11 87
11 115
11 253
11 254
12 106
12 88
12 268
12 99
13 368
13 85
13 321
13 15
14 340
14 232
14 206
14 315
15 321
15 298
15 229
16 156
16 296
16 208
16 52
17 75
17 240
17 265
17 161
18 37
18 303
18 211
18 222
19 217
19 72
19 145
19 192
20 36
20 40
20 149
20 118
21 364
21 111
21 150
21 159
22 307
22 79
22 186
22 245
23 123
24 113
24 190
24 362
24 70
25 234
25 38
25 355
25 30
26 197
26 298
26 305
26 258
27 346
27 227
27 130
27 64
28 153
28 152
28 205
28 151
29 173
29 371
29 345
29 75
30 355
30 277
30 279
31 137
31 358
31 273
31 186
32 242
32 198
32 359
32 95
33 257
33 351
33 42
33 259
34 214
34 215
34 158
34 122
35 65
35 262
35 78
35 135
36 40
36 116
36 220
37 303
37 99
38 101
38 159
38 234
39 370
39 228
39 141
39 231
40 348
40 319
41 306
41 69
41 244
41 118
42 259
42 260
42 238
43 89
43 178
43 206
43 112
44 209
44 58
44 194
44 79
45 114
45 103
45 139
45 78
46 225
46 362
46 268
46 208
47 343
47 288
47 230
47 336
48 304
48 63
48 180
48 341
49 131
49 89
49 267
49 247
50 97
50 356
50 140
50 109
51 150
51 264
51 252
51 157
52 274
52 370
52 208
53 235
53 291
53 134
53 360
54 270
54 332
54 331
54 133
55 179
55 110
55 226
55 76
56 62
56 119
56 311
57 153
57 151
57 171
57 173
58 348
58 100
58 209
59 357
59 271
59 77
59 160
60 260
60 188
60 74
60 226
61 285
61 367
61 330
61 246
62 119
62 314
62 139
63 304
64 196
64 278
64 130
65 262
65 304
65 280
66 359
66 248
66 286
66 263
67 349
67 318
67 177
67 138
68 314
68 315
68 92
68 223
69 275
69 191
69 306
70 350
70 176
70 362
71 372
71 144
71 319
71 192
72 217
72 108
72 277
73 265
73 353
73 196
73 207
74 109
74 306
74 226
75 240
75 345
76 369
76 312
76 226
77 299
77 85
77 160
78 135
78 139
79 307
79 194
80 155
80 334
80 129
80 163
81 302
81 104
81 205
81 169
82 243
82 341
82 181
82 258
83 125
83 294
83 102
83 182
84 143
84 136
84 305
84 349
85 299
85 368
86 340
86 125
86 244
86 104
87 115
87 180
87 344
88 106
88 184
88 197
89 178
89 131
90 140
90 212
90 300
90 229
91 117
91 363
91 343
91 128
92 363
92 93
92 223
93 221
93 285
93 363
94 126
94 147
94 224
94 166
95 359
95 291
95 284
96 172
96 272
96 98
96 264
97 309
97 160
97 356
98 264
98 166
98 312
99 268
100 348
100 123
100 112
101 159
101 178
101 119
102 114
102 132
102 182
103 114
103 335
103 158
104 302
104 244
105 183
105 185
105 108
105 301
106 187
106 200
107 238
107 295
107 361
107 202
108 277
108 301
109 306
109 140
110 179
110 334
111 162
111 165
111 364
112 206
112 123
113 190
113 302
113 230
114 132
115 221
115 207
116 310
116 246
116 220
117 363
117 148
117 144
118 244
118 149
119 178
120 187
120 288
120 292
121 130
121 283
121 372
121 327
122 158
122 138
122 154
124 242
124 161
124 337
125 340
125 294
126 147
126 337
126 275
127 321
127 324
127 170
127 176
128 199
128 343
129 163
129 347
129 316
130 283
131 148
131 342
132 339
132 216
133 331
133 256
133 248
134 364
134 326
134 360
135 231
136 143
136 177
136 262
137 152
137 358
138 154
138 177
139 314
140 212
141 231
141 250
141 286
142 281
142 171
142 278
142 213
143 227
143 261
144 372
144 148
145 192
145 313
145 368
146 338
146 369
146 330
147 309
147 255
148 342
149 311
149 296
150 264
150 159
151 153
151 205
152 153
154 169
154 339
155 334
155 276
155 254
156 296
156 266
156 167
157 195
157 183
157 252
158 335
160 309
161 265
161 337
162 165
162 172
162 189
163 210
163 282
164 289
164 210
164 371
165 202
165 168
166 224
166 312
167 322
167 320
167 266
168 184
168 357
168 202
169 339
169 205
170 322
170 182
170 176
171 281
171 173
172 272
172 189
173 371
174 267
174 327
174 361
174 333
175 193
175 217
175 204
175 350
176 350
177 262
179 318
179 190
180 344
180 341
181 258
181 218
181 239
182 322
183 195
183 185
184 357
184 197
185 233
185 195
186 245
186 273
187 200
187 288
188 328
188 224
188 260
189 209
189 290
190 318
191 275
191 219
191 216
192 319
193 217
193 313
193 323
194 323
194 333
195 233
196 207
196 278
197 298
198 249
198 242
199 218
199 237
200 290
200 326
201 204
201 353
201 279
201 336
202 361
203 241
203 213
203 250
203 276
204 353
204 350
206 315
207 221
208 268
209 290
210 289
210 282
211 283
211 347
211 222
212 257
212 270
213 241
213 278
214 215
214 273
214 256
215 295
216 219
216 339
218 237
218 239
219 307
220 266
220 287
221 285
222 354
222 299
223 365
223 366
224 328
225 362
225 331
227 346
227 261
228 370
228 338
228 261
229 298
229 300
230 336
230 302
232 340
232 281
232 251
233 249
233 329
234 239
234 263
235 291
235 297
235 344
236 240
236 324
236 355
237 282
237 252
238 295
238 260
239 263
241 366
241 280
243 341
243 316
243 294
245 300
245 269
246 310
246 330
247 267
247 317
247 352
248 359
248 256
249 329
250 276
250 286
251 325
251 272
251 281
252 282
253 254
253 271
254 276
255 309
255 274
255 317
256 273
257 270
257 351
258 305
259 345
259 303
261 338
263 286
265 353
266 287
267 327
269 284
269 342
269 300
270 332
271 357
272 325
274 370
274 317
275 337
277 279
279 336
280 366
280 304
283 347
284 342
284 291
285 367
287 325
288 343
289 358
289 367
290 326
292 329
292 335
293 332
294 316
296 311
297 320
297 344
299 354
301 356
301 308
303 345
305 349
308 356
308 354
308 360
310 365
310 352
312 369
313 323
313 368
314 315
316 347
317 352
318 349
319 348
320 322
321 324
323 333
324 355
326 364
327 372
328 346
328 351
329 335
333 361
338 369
346 351
352 365
354 360
358 367
365 366
