0 53
0 97
0 98
1 2
1 53
1 54
2 53
2 54
3 4
3 55
3 56
4 55
4 56
5 6
5 57
5 58
6 57
6 58
7 8
7 59
7 60
8 59
8 60
9 10
9 61
9 62
10 61
10 62
11 62
11 105
11 106
12 13
12 63
12 64
13 63
13 64
14 15
14 65
14 66
15 65
15 66
16 17
16 67
16 68
17 67
17 68
18 68
18 111
18 112
19 20
19 69
19 70
20 69
20 70
21 22
21 71
21 72
22 71
22 72
23 24
23 73
23 74
24 73
24 74
25 74
25 117
25 118
26 27
26 75
26 76
27 75
27 76
28 29
28 77
28 78
29 77
29 78
30 31
30 79
30 80
31 79
31 80
32 80
32 123
32 124
33 34
33 81
33 82
34 81
34 82
35 36
35 83
35 84
36 83
36 84
37 38
37 85
37 86
38 85
38 86
39 86
39 129
39 130
40 41
40 87
40 88
41 87
41 88
42 43
42 89
42 90
43 89
43 90
44 45
44 91
44 92
45 91
45 92
46 92
46 135
46 136
47 93
47 137
47 138
48 49
48 93
48 94
49 93
49 94
50 51
50 95
50 96
51 95
51 96
52 96
52 141
52 142
53 54
53 97
53 98
54 55
54 99
54 100
55 56
55 99
55 100
56 105
56 151
56 152
57 58
57 153
57 193
57 194
58 59
58 101
58 102
59 60
59 101
59 102
60 61
60 103
60 104
61 62
61 103
61 104
62 105
62 106
63 64
63 69
63 153
63 154
64 65
64 107
64 108
65 66
65 107
65 108
66 67
66 109
66 110
67 68
67 109
67 110
68 111
68 112
69 70
69 153
69 154
70 71
70 113
70 114
71 72
71 113
71 114
72 73
72 115
72 116
73 74
73 115
73 116
74 117
74 118
75 76
75 81
75 167
75 168
76 77
76 119
76 120
77 78
77 119
77 120
78 79
78 121
78 122
79 80
79 121
79 122
80 123
80 124
81 82
81 167
81 168
82 83
82 125
82 126
83 84
83 125
83 126
84 85
84 127
84 128
85 86
85 127
85 128
86 129
86 130
87 88
87 168
87 221
87 222
88 89
88 131
88 132
89 90
89 131
89 132
90 91
90 133
90 134
91 92
91 133
91 134
92 135
92 136
93 94
93 137
93 138
94 95
94 139
94 140
95 96
95 139
95 140
96 141
96 142
97 98
97 101
97 143
97 144
98 102
98 145
98 146
99 100
99 103
99 147
99 148
100 104
100 149
100 150
101 102
101 143
101 144
102 145
102 146
103 104
103 147
103 148
104 149
104 150
105 106
105 151
105 152
106 165
106 205
106 206
107 108
107 113
107 155
107 156
108 114
108 157
108 158
109 110
109 115
109 159
109 160
110 116
110 161
110 162
111 112
111 117
111 163
111 164
112 118
112 165
112 166
113 114
113 155
113 156
114 157
114 158
115 116
115 159
115 160
116 161
116 162
117 118
117 163
117 164
118 165
118 166
119 120
119 125
119 169
119 170
120 126
120 171
120 172
121 122
121 127
121 173
121 174
122 128
122 175
122 176
123 124
123 129
123 177
123 178
124 130
124 179
124 180
125 126
125 169
125 170
126 171
126 172
127 128
127 173
127 174
128 175
128 176
129 130
129 177
129 178
130 179
130 180
131 132
131 137
131 181
131 182
132 138
132 183
132 184
133 134
133 139
133 185
133 186
134 140
134 187
134 188
135 136
135 141
135 189
135 190
136 142
136 191
136 192
137 138
137 181
137 182
138 183
138 184
139 140
139 185
139 186
140 187
140 188
141 142
141 189
141 190
142 191
142 192
143 144
143 235
143 279
143 280
144 155
144 195
144 196
145 146
145 147
145 235
145 236
146 157
146 197
146 198
147 148
147 235
147 236
148 159
148 199
148 200
149 150
149 151
149 237
149 238
150 161
150 201
150 202
151 152
151 237
151 238
152 163
152 203
152 204
153 154
153 193
153 194
154 167
154 207
154 208
155 156
155 195
155 196
156 169
156 209
156 210
157 158
157 197
157 198
158 171
158 211
158 212
159 160
159 199
159 200
160 173
160 213
160 214
161 162
161 201
161 202
162 175
162 215
162 216
163 164
163 203
163 204
164 177
164 217
164 218
165 166
165 205
165 206
166 179
166 219
166 220
167 168
167 207
167 208
168 221
168 222
169 170
169 209
169 210
170 181
170 223
170 224
171 172
171 211
171 212
172 183
172 225
172 226
173 174
173 213
173 214
174 185
174 227
174 228
175 176
175 215
175 216
176 187
176 229
176 230
177 178
177 217
177 218
178 189
178 231
178 232
179 180
179 219
179 220
180 191
180 233
180 234
181 182
181 223
181 224
182 275
182 319
182 320
183 184
183 225
183 226
184 186
184 275
184 276
185 186
185 227
185 228
186 275
186 276
187 188
187 229
187 230
188 190
188 277
188 278
189 190
189 231
189 232
190 277
190 278
191 192
191 233
191 234
192 278
192 323
192 324
193 194
193 195
193 239
193 240
194 196
194 245
194 246
195 196
195 239
195 240
196 245
196 246
197 198
197 199
197 241
197 242
198 200
198 247
198 248
199 200
199 241
199 242
200 247
200 248
201 202
201 203
201 243
201 244
202 204
202 249
202 250
203 204
203 243
203 244
204 249
204 250
205 206
205 244
205 287
205 288
206 250
206 293
206 294
207 208
207 209
207 251
207 252
208 210
208 257
208 258
209 210
209 251
209 252
210 257
210 258
211 212
211 213
211 253
211 254
212 214
212 259
212 260
213 214
213 253
213 254
214 259
214 260
215 216
215 217
215 255
215 256
216 218
216 261
216 262
217 218
217 255
217 256
218 261
218 262
219 220
219 256
219 299
219 300
220 262
220 305
220 306
221 222
221 223
221 263
221 264
222 224
222 269
222 270
223 224
223 263
223 264
224 269
224 270
225 226
225 227
225 265
225 266
226 228
226 271
226 272
227 228
227 265
227 266
228 271
228 272
229 230
229 231
229 267
229 268
230 232
230 273
230 274
231 232
231 267
231 268
232 273
232 274
233 234
233 268
233 311
233 312
234 274
234 317
234 318
235 236
235 279
235 280
236 237
236 281
236 282
237 238
237 281
237 282
238 287
238 333
238 334
239 240
239 335
239 375
239 376
240 241
240 283
240 284
241 242
241 283
241 284
242 243
242 285
242 286
243 244
243 285
243 286
244 287
244 288
245 246
245 251
245 335
245 336
246 247
246 289
246 290
247 248
247 289
247 290
248 249
248 291
248 292
249 250
249 291
249 292
250 293
250 294
251 252
251 335
251 336
252 253
252 295
252 296
253 254
253 295
253 296
254 255
254 297
254 298
255 256
255 297
255 298
256 299
256 300
257 258
257 263
257 349
257 350
258 259
258 301
258 302
259 260
259 301
259 302
260 261
260 303
260 304
261 262
261 303
261 304
262 305
262 306
263 264
263 349
263 350
264 265
264 307
264 308
265 266
265 307
265 308
266 267
266 309
266 310
267 268
267 309
267 310
268 311
268 312
269 270
269 350
269 403
269 404
270 271
270 313
270 314
271 272
271 313
271 314
272 273
272 315
272 316
273 274
273 315
273 316
274 317
274 318
275 276
275 319
275 320
276 277
276 321
276 322
277 278
277 321
277 322
278 323
278 324
279 280
279 283
279 325
279 326
280 284
280 327
280 328
281 282
281 285
281 329
281 330
282 286
282 331
282 332
283 284
283 325
283 326
284 327
284 328
285 286
285 329
285 330
286 331
286 332
287 288
287 333
287 334
288 347
288 387
288 388
289 290
289 295
289 337
289 338
290 296
290 339
290 340
291 292
291 297
291 341
291 342
292 298
292 343
292 344
293 294
293 299
293 345
293 346
294 300
294 347
294 348
295 296
295 337
295 338
296 339
296 340
297 298
297 341
297 342
298 343
298 344
299 300
299 345
299 346
300 347
300 348
301 302
301 307
301 351
301 352
302 308
302 353
302 354
303 304
303 309
303 355
303 356
304 310
304 357
304 358
305 306
305 311
305 359
305 360
306 312
306 361
306 362
307 308
307 351
307 352
308 353
308 354
309 310
309 355
309 356
310 357
310 358
311 312
311 359
311 360
312 361
312 362
313 314
313 319
313 363
313 364
314 320
314 365
314 366
315 316
315 321
315 367
315 368
316 322
316 369
316 370
317 318
317 323
317 371
317 372
318 324
318 373
318 374
319 320
319 363
319 364
320 365
320 366
321 322
321 367
321 368
322 369
322 370
323 324
323 371
323 372
324 373
324 374
325 326
325 417
325 461
325 462
326 337
326 377
326 378
327 328
327 329
327 417
327 418
328 339
328 379
328 380
329 330
329 417
329 418
330 341
330 381
330 382
331 332
331 333
331 419
331 420
332 343
332 383
332 384
333 334
333 419
333 420
334 345
334 385
334 386
335 336
335 375
335 376
336 349
336 389
336 390
337 338
337 377
337 378
338 351
338 391
338 392
339 340
339 379
339 380
340 353
340 393
340 394
341 342
341 381
341 382
342 355
342 395
342 396
343 344
343 383
343 384
344 357
344 397
344 398
345 346
345 385
345 386
346 359
346 399
346 400
347 348
347 387
347 388
348 361
348 401
348 402
349 350
349 389
349 390
350 403
350 404
351 352
351 391
351 392
352 363
352 405
352 406
353 354
353 393
353 394
354 365
354 407
354 408
355 356
355 395
355 396
356 367
356 409
356 410
357 358
357 397
357 398
358 369
358 411
358 412
359 360
359 399
359 400
360 371
360 413
360 414
361 362
361 401
361 402
362 373
362 415
362 416
363 364
363 405
363 406
364 457
364 501
364 502
365 366
365 407
365 408
366 368
366 457
366 458
367 368
367 409
367 410
368 457
368 458
369 370
369 411
369 412
370 372
370 459
370 460
371 372
371 413
371 414
372 459
372 460
373 374
373 415
373 416
374 460
374 505
374 506
375 376
375 377
375 421
375 422
376 378
376 427
376 428
377 378
377 421
377 422
378 427
378 428
379 380
379 381
379 423
379 424
380 382
380 429
380 430
381 382
381 423
381 424
382 429
382 430
383 384
383 385
383 425
383 426
384 386
384 431
384 432
385 386
385 425
385 426
386 431
386 432
387 388
387 426
387 469
387 470
388 432
388 475
388 476
389 390
389 391
389 433
389 434
390 392
390 439
390 440
391 392
391 433
391 434
392 439
392 440
393 394
393 395
393 435
393 436
394 396
394 441
394 442
395 396
395 435
395 436
396 441
396 442
397 398
397 399
397 437
397 438
398 400
398 443
398 444
399 400
399 437
399 438
400 443
400 444
401 402
401 438
401 481
401 482
402 444
402 487
402 488
403 404
403 405
403 445
403 446
404 406
404 451
404 452
405 406
405 445
405 446
406 451
406 452
407 408
407 409
407 447
407 448
408 410
408 453
408 454
409 410
409 447
409 448
410 453
410 454
411 412
411 413
411 449
411 450
412 414
412 455
412 456
413 414
413 449
413 450
414 455
414 456
415 416
415 450
415 493
415 494
416 456
416 499
416 500
417 418
417 461
417 462
418 419
418 463
418 464
419 420
419 463
419 464
420 469
420 515
420 516
421 422
421 517
421 557
421 558
422 423
422 465
422 466
423 424
423 465
423 466
424 425
424 467
424 468
425 426
425 467
425 468
426 469
426 470
427 428
427 433
427 517
427 518
428 429
428 471
428 472
429 430
429 471
429 472
430 431
430 473
430 474
431 432
431 473
431 474
432 475
432 476
433 434
433 517
433 518
434 435
434 477
434 478
435 436
435 477
435 478
436 437
436 479
436 480
437 438
437 479
437 480
438 481
438 482
439 440
439 445
439 531
439 532
440 441
440 483
440 484
441 442
441 483
441 484
442 443
442 485
442 486
443 444
443 485
443 486
444 487
444 488
445 446
445 531
445 532
446 447
446 489
446 490
447 448
447 489
447 490
448 449
448 491
448 492
449 450
449 491
449 492
450 493
450 494
451 452
451 532
451 585
451 586
452 453
452 495
452 496
453 454
453 495
453 496
454 455
454 497
454 498
455 456
455 497
455 498
456 499
456 500
457 458
457 501
457 502
458 459
458 503
458 504
459 460
459 503
459 504
460 505
460 506
461 462
461 465
461 507
461 508
462 466
462 509
462 510
463 464
463 467
463 511
463 512
464 468
464 513
464 514
465 466
465 507
465 508
466 509
466 510
467 468
467 511
467 512
468 513
468 514
469 470
469 515
469 516
470 529
470 569
470 570
471 472
471 477
471 519
471 520
472 478
472 521
472 522
473 474
473 479
473 523
473 524
474 480
474 525
474 526
475 476
475 481
475 527
475 528
476 482
476 529
476 530
477 478
477 519
477 520
478 521
478 522
479 480
479 523
479 524
480 525
480 526
481 482
481 527
481 528
482 529
482 530
483 484
483 489
483 533
483 534
484 490
484 535
484 536
485 486
485 491
485 537
485 538
486 492
486 539
486 540
487 488
487 493
487 541
487 542
488 494
488 543
488 544
489 490
489 533
489 534
490 535
490 536
491 492
491 537
491 538
492 539
492 540
493 494
493 541
493 542
494 543
494 544
495 496
495 501
495 545
495 546
496 502
496 547
496 548
497 498
497 503
497 549
497 550
498 504
498 551
498 552
499 500
499 505
499 553
499 554
500 506
500 555
500 556
501 502
501 545
501 546
502 547
502 548
503 504
503 549
503 550
504 551
504 552
505 506
505 553
505 554
506 555
506 556
507 508
507 599
507 643
507 644
508 519
508 559
508 560
509 510
509 511
509 599
509 600
510 521
510 561
510 562
511 512
511 599
511 600
512 523
512 563
512 564
513 514
513 515
513 601
513 602
514 525
514 565
514 566
515 516
515 601
515 602
516 527
516 567
516 568
517 518
517 557
517 558
518 531
518 571
518 572
519 520
519 559
519 560
520 533
520 573
520 574
521 522
521 561
521 562
522 535
522 575
522 576
523 524
523 563
523 564
524 537
524 577
524 578
525 526
525 565
525 566
526 539
526 579
526 580
527 528
527 567
527 568
528 541
528 581
528 582
529 530
529 569
529 570
530 543
530 583
530 584
531 532
531 571
531 572
532 585
532 586
533 534
533 573
533 574
534 545
534 587
534 588
535 536
535 575
535 576
536 547
536 589
536 590
537 538
537 577
537 578
538 549
538 591
538 592
539 540
539 579
539 580
540 551
540 593
540 594
541 542
541 581
541 582
542 553
542 595
542 596
543 544
543 583
543 584
544 555
544 597
544 598
545 546
545 587
545 588
546 639
546 683
546 684
547 548
547 589
547 590
548 550
548 639
548 640
549 550
549 591
549 592
550 639
550 640
551 552
551 593
551 594
552 554
552 641
552 642
553 554
553 595
553 596
554 641
554 642
555 556
555 597
555 598
556 642
556 687
556 688
557 558
557 559
557 603
557 604
558 560
558 609
558 610
559 560
559 603
559 604
560 609
560 610
561 562
561 563
561 605
561 606
562 564
562 611
562 612
563 564
563 605
563 606
564 611
564 612
565 566
565 567
565 607
565 608
566 568
566 613
566 614
567 568
567 607
567 608
568 613
568 614
569 570
569 608
569 651
569 652
570 614
570 657
570 658
571 572
571 573
571 615
571 616
572 574
572 621
572 622
573 574
573 615
573 616
574 621
574 622
575 576
575 577
575 617
575 618
576 578
576 623
576 624
577 578
577 617
577 618
578 623
578 624
579 580
579 581
579 619
579 620
580 582
580 625
580 626
581 582
581 619
581 620
582 625
582 626
583 584
583 620
583 663
583 664
584 626
584 669
584 670
585 586
585 587
585 627
585 628
586 588
586 633
586 634
587 588
587 627
587 628
588 633
588 634
589 590
589 591
589 629
589 630
590 592
590 635
590 636
591 592
591 629
591 630
592 635
592 636
593 594
593 595
593 631
593 632
594 596
594 637
594 638
595 596
595 631
595 632
596 637
596 638
597 598
597 632
597 675
597 676
598 638
598 681
598 682
599 600
599 643
599 644
600 601
600 645
600 646
601 602
601 645
601 646
602 651
602 697
602 698
603 604
603 699
603 739
603 740
604 605
604 647
604 648
605 606
605 647
605 648
606 607
606 649
606 650
607 608
607 649
607 650
608 651
608 652
609 610
609 615
609 699
609 700
610 611
610 653
610 654
611 612
611 653
611 654
612 613
612 655
612 656
613 614
613 655
613 656
614 657
614 658
615 616
615 699
615 700
616 617
616 659
616 660
617 618
617 659
617 660
618 619
618 661
618 662
619 620
619 661
619 662
620 663
620 664
621 622
621 627
621 713
621 714
622 623
622 665
622 666
623 624
623 665
623 666
624 625
624 667
624 668
625 626
625 667
625 668
626 669
626 670
627 628
627 713
627 714
628 629
628 671
628 672
629 630
629 671
629 672
630 631
630 673
630 674
631 632
631 673
631 674
632 675
632 676
633 634
633 714
633 767
633 768
634 635
634 677
634 678
635 636
635 677
635 678
636 637
636 679
636 680
637 638
637 679
637 680
638 681
638 682
639 640
639 683
639 684
640 641
640 685
640 686
641 642
641 685
641 686
642 687
642 688
643 644
643 647
643 689
643 690
644 648
644 691
644 692
645 646
645 649
645 693
645 694
646 650
646 695
646 696
647 648
647 689
647 690
648 691
648 692
649 650
649 693
649 694
650 695
650 696
651 652
651 697
651 698
652 711
652 751
652 752
653 654
653 659
653 701
653 702
654 660
654 703
654 704
655 656
655 661
655 705
655 706
656 662
656 707
656 708
657 658
657 663
657 709
657 710
658 664
658 711
658 712
659 660
659 701
659 702
660 703
660 704
661 662
661 705
661 706
662 707
662 708
663 664
663 709
663 710
664 711
664 712
665 666
665 671
665 715
665 716
666 672
666 717
666 718
667 668
667 673
667 719
667 720
668 674
668 721
668 722
669 670
669 675
669 723
669 724
670 676
670 725
670 726
671 672
671 715
671 716
672 717
672 718
673 674
673 719
673 720
674 721
674 722
675 676
675 723
675 724
676 725
676 726
677 678
677 683
677 727
677 728
678 684
678 729
678 730
679 680
679 685
679 731
679 732
680 686
680 733
680 734
681 682
681 687
681 735
681 736
682 688
682 737
682 738
683 684
683 727
683 728
684 729
684 730
685 686
685 731
685 732
686 733
686 734
687 688
687 735
687 736
688 737
688 738
689 690
689 781
689 825
689 826
690 701
690 741
690 742
691 692
691 693
691 781
691 782
692 703
692 743
692 744
693 694
693 781
693 782
694 705
694 745
694 746
695 696
695 697
695 783
695 784
696 707
696 747
696 748
697 698
697 783
697 784
698 709
698 749
698 750
699 700
699 739
699 740
700 713
700 753
700 754
701 702
701 741
701 742
702 715
702 755
702 756
703 704
703 743
703 744
704 717
704 757
704 758
705 706
705 745
705 746
706 719
706 759
706 760
707 708
707 747
707 748
708 721
708 761
708 762
709 710
709 749
709 750
710 723
710 763
710 764
711 712
711 751
711 752
712 725
712 765
712 766
713 714
713 753
713 754
714 767
714 768
715 716
715 755
715 756
716 727
716 769
716 770
717 718
717 757
717 758
718 729
718 771
718 772
719 720
719 759
719 760
720 731
720 773
720 774
721 722
721 761
721 762
722 733
722 775
722 776
723 724
723 763
723 764
724 735
724 777
724 778
725 726
725 765
725 766
726 737
726 779
726 780
727 728
727 769
727 770
728 821
728 865
728 866
729 730
729 771
729 772
730 732
730 821
730 822
731 732
731 773
731 774
732 821
732 822
733 734
733 775
733 776
734 736
734 823
734 824
735 736
735 777
735 778
736 823
736 824
737 738
737 779
737 780
738 824
738 869
738 870
739 740
739 741
739 785
739 786
740 742
740 791
740 792
741 742
741 785
741 786
742 791
742 792
743 744
743 745
743 787
743 788
744 746
744 793
744 794
745 746
745 787
745 788
746 793
746 794
747 748
747 749
747 789
747 790
748 750
748 795
748 796
749 750
749 789
749 790
750 795
750 796
751 752
751 790
751 833
751 834
752 796
752 839
752 840
753 754
753 755
753 797
753 798
754 756
754 803
754 804
755 756
755 797
755 798
756 803
756 804
757 758
757 759
757 799
757 800
758 760
758 805
758 806
759 760
759 799
759 800
760 805
760 806
761 762
761 763
761 801
761 802
762 764
762 807
762 808
763 764
763 801
763 802
764 807
764 808
765 766
765 802
765 845
765 846
766 808
766 851
766 852
767 768
767 769
767 809
767 810
768 770
768 815
768 816
769 770
769 809
769 810
770 815
770 816
771 772
771 773
771 811
771 812
772 774
772 817
772 818
773 774
773 811
773 812
774 817
774 818
775 776
775 777
775 813
775 814
776 778
776 819
776 820
777 778
777 813
777 814
778 819
778 820
779 780
779 814
779 857
779 858
780 820
780 863
780 864
781 782
781 825
781 826
782 783
782 827
782 828
783 784
783 827
783 828
784 833
784 879
784 880
785 786
785 881
785 921
785 922
786 787
786 829
786 830
787 788
787 829
787 830
788 789
788 831
788 832
789 790
789 831
789 832
790 833
790 834
791 792
791 797
791 881
791 882
792 793
792 835
792 836
793 794
793 835
793 836
794 795
794 837
794 838
795 796
795 837
795 838
796 839
796 840
797 798
797 881
797 882
798 799
798 841
798 842
799 800
799 841
799 842
800 801
800 843
800 844
801 802
801 843
801 844
802 845
802 846
803 804
803 809
803 895
803 896
804 805
804 847
804 848
805 806
805 847
805 848
806 807
806 849
806 850
807 808
807 849
807 850
808 851
808 852
809 810
809 895
809 896
810 811
810 853
810 854
811 812
811 853
811 854
812 813
812 855
812 856
813 814
813 855
813 856
814 857
814 858
815 816
815 896
815 949
815 950
816 817
816 859
816 860
817 818
817 859
817 860
818 819
818 861
818 862
819 820
819 861
819 862
820 863
820 864
821 822
821 865
821 866
822 823
822 867
822 868
823 824
823 867
823 868
824 869
824 870
825 826
825 829
825 871
825 872
826 830
826 873
826 874
827 828
827 831
827 875
827 876
828 832
828 877
828 878
829 830
829 871
829 872
830 873
830 874
831 832
831 875
831 876
832 877
832 878
833 834
833 879
833 880
834 893
834 933
834 934
835 836
835 841
835 883
835 884
836 842
836 885
836 886
837 838
837 843
837 887
837 888
838 844
838 889
838 890
839 840
839 845
839 891
839 892
840 846
840 893
840 894
841 842
841 883
841 884
842 885
842 886
843 844
843 887
843 888
844 889
844 890
845 846
845 891
845 892
846 893
846 894
847 848
847 853
847 897
847 898
848 854
848 899
848 900
849 850
849 855
849 901
849 902
850 856
850 903
850 904
851 852
851 857
851 905
851 906
852 858
852 907
852 908
853 854
853 897
853 898
854 899
854 900
855 856
855 901
855 902
856 903
856 904
857 858
857 905
857 906
858 907
858 908
859 860
859 865
859 909
859 910
860 866
860 911
860 912
861 862
861 867
861 913
861 914
862 868
862 915
862 916
863 864
863 869
863 917
863 918
864 870
864 919
864 920
865 866
865 909
865 910
866 911
866 912
867 868
867 913
867 914
868 915
868 916
869 870
869 917
869 918
870 919
870 920
871 872
872 883
872 923
872 924
873 874
874 885
874 925
874 926
875 876
876 887
876 927
876 928
877 878
878 889
878 929
878 930
879 880
880 891
880 931
880 932
881 882
881 921
881 922
882 895
882 935
882 936
883 884
883 923
883 924
884 897
884 937
884 938
885 886
885 925
885 926
886 899
886 939
886 940
887 888
887 927
887 928
888 901
888 941
888 942
889 890
889 929
889 930
890 903
890 943
890 944
891 892
891 931
891 932
892 905
892 945
892 946
893 894
893 933
893 934
894 907
894 947
894 948
895 896
895 935
895 936
896 949
896 950
897 898
897 937
897 938
898 909
898 951
898 952
899 900
899 939
899 940
900 911
900 953
900 954
901 902
901 941
901 942
902 913
902 955
902 956
903 904
903 943
903 944
904 915
904 957
904 958
905 906
905 945
905 946
906 917
906 959
906 960
907 908
907 947
907 948
908 919
908 961
908 962
909 910
909 951
909 952
911 912
911 953
911 954
913 914
913 955
913 956
915 916
915 957
915 958
917 918
917 959
917 960
919 920
919 961
919 962
921 922
923 924
925 926
927 928
929 930
931 932
933 934
935 936
937 938
939 940
941 942
943 944
945 946
947 948
949 950
951 952
953 954
955 956
957 958
959 960
961 962
