p tw 963 2730
1 54
1 98
1 99
2 3
2 54
2 55
3 54
3 55
4 5
4 56
4 57
5 56
5 57
6 7
6 58
6 59
7 58
7 59
8 9
8 60
8 61
9 60
9 61
10 11
10 62
10 63
11 62
11 63
12 63
12 106
12 107
13 14
13 64
13 65
14 64
14 65
15 16
15 66
15 67
16 66
16 67
17 18
17 68
17 69
18 68
18 69
19 69
19 112
19 113
20 21
20 70
20 71
21 70
21 71
22 23
22 72
22 73
23 72
23 73
24 25
24 74
24 75
25 74
25 75
26 75
26 118
26 119
27 28
27 76
27 77
28 76
28 77
29 30
29 78
29 79
30 78
30 79
31 32
31 80
31 81
32 80
32 81
33 81
33 124
33 125
34 35
34 82
34 83
35 82
35 83
36 37
36 84
36 85
37 84
37 85
38 39
38 86
38 87
39 86
39 87
40 87
40 130
40 131
41 42
41 88
41 89
42 88
42 89
43 44
43 90
43 91
44 90
44 91
45 46
45 92
45 93
46 92
46 93
47 93
47 136
47 137
48 94
48 138
48 139
49 50
49 94
49 95
50 94
50 95
51 52
51 96
51 97
52 96
52 97
53 97
53 142
53 143
54 55
54 98
54 99
55 56
55 100
55 101
56 57
56 100
56 101
57 106
57 152
57 153
58 59
58 154
58 194
58 195
59 60
59 102
59 103
60 61
60 102
60 103
61 62
61 104
61 105
62 63
62 104
62 105
63 106
63 107
64 65
64 70
64 154
64 155
65 66
65 108
65 109
66 67
66 108
66 109
67 68
67 110
67 111
68 69
68 110
68 111
69 112
69 113
70 71
70 154
70 155
71 72
71 114
71 115
72 73
72 114
72 115
73 74
73 116
73 117
74 75
74 116
74 117
75 118
75 119
76 77
76 82
76 168
76 169
77 78
77 120
77 121
78 79
78 120
78 121
79 80
79 122
79 123
80 81
80 122
80 123
81 124
81 125
82 83
82 168
82 169
83 84
83 126
83 127
84 85
84 126
84 127
85 86
85 128
85 129
86 87
86 128
86 129
87 130
87 131
88 89
88 169
88 222
88 223
89 90
89 132
89 133
90 91
90 132
90 133
91 92
91 134
91 135
92 93
92 134
92 135
93 136
93 137
94 95
94 138
94 139
95 96
95 140
95 141
96 97
96 140
96 141
97 142
97 143
98 99
98 102
98 144
98 145
99 103
99 146
99 147
100 101
100 104
100 148
100 149
101 105
101 150
101 151
102 103
102 144
102 145
103 146
103 147
104 105
104 148
104 149
105 150
105 151
106 107
106 152
106 153
107 166
107 206
107 207
108 109
108 114
108 156
108 157
109 115
109 158
109 159
110 111
110 116
110 160
110 161
111 117
111 162
111 163
112 113
112 118
112 164
112 165
113 119
113 166
113 167
114 115
114 156
114 157
115 158
115 159
116 117
116 160
116 161
117 162
117 163
118 119
118 164
118 165
119 166
119 167
120 121
120 126
120 170
120 171
121 127
121 172
121 173
122 123
122 128
122 174
122 175
123 129
123 176
123 177
124 125
124 130
124 178
124 179
125 131
125 180
125 181
126 127
126 170
126 171
127 172
127 173
128 129
128 174
128 175
129 176
129 177
130 131
130 178
130 179
131 180
131 181
132 133
132 138
132 182
132 183
133 139
133 184
133 185
134 135
134 140
134 186
134 187
135 141
135 188
135 189
136 137
136 142
136 190
136 191
137 143
137 192
137 193
138 139
138 182
138 183
139 184
139 185
140 141
140 186
140 187
141 188
141 189
142 143
142 190
142 191
143 192
143 193
144 145
144 236
144 280
144 281
145 156
145 196
145 197
146 147
146 148
146 236
146 237
147 158
147 198
147 199
148 149
148 236
148 237
149 160
149 200
149 201
150 151
150 152
150 238
150 239
151 162
151 202
151 203
152 153
152 238
152 239
153 164
153 204
153 205
154 155
154 194
154 195
155 168
155 208
155 209
156 157
156 196
156 197
157 170
157 210
157 211
158 159
158 198
158 199
159 172
159 212
159 213
160 161
160 200
160 201
161 174
161 214
161 215
162 163
162 202
162 203
163 176
163 216
163 217
164 165
164 204
164 205
165 178
165 218
165 219
166 167
166 206
166 207
167 180
167 220
167 221
168 169
168 208
168 209
169 222
169 223
170 171
170 210
170 211
171 182
171 224
171 225
172 173
172 212
172 213
173 184
173 226
173 227
174 175
174 214
174 215
175 186
175 228
175 229
176 177
176 216
176 217
177 188
177 230
177 231
178 179
178 218
178 219
179 190
179 232
179 233
180 181
180 220
180 221
181 192
181 234
181 235
182 183
182 224
182 225
183 276
183 320
183 321
184 185
184 226
184 227
185 187
185 276
185 277
186 187
186 228
186 229
187 276
187 277
188 189
188 230
188 231
189 191
189 278
189 279
190 191
190 232
190 233
191 278
191 279
192 193
192 234
192 235
193 279
193 324
193 325
194 195
194 196
194 240
194 241
195 197
195 246
195 247
196 197
196 240
196 241
197 246
197 247
198 199
198 200
198 242
198 243
199 201
199 248
199 249
200 201
200 242
200 243
201 248
201 249
202 203
202 204
202 244
202 245
203 205
203 250
203 251
204 205
204 244
204 245
205 250
205 251
206 207
206 245
206 288
206 289
207 251
207 294
207 295
208 209
208 210
208 252
208 253
209 211
209 258
209 259
210 211
210 252
210 253
211 258
211 259
212 213
212 214
212 254
212 255
213 215
213 260
213 261
214 215
214 254
214 255
215 260
215 261
216 217
216 218
216 256
216 257
217 219
217 262
217 263
218 219
218 256
218 257
219 262
219 263
220 221
220 257
220 300
220 301
221 263
221 306
221 307
222 223
222 224
222 264
222 265
223 225
223 270
223 271
224 225
224 264
224 265
225 270
225 271
226 227
226 228
226 266
226 267
227 229
227 272
227 273
228 229
228 266
228 267
229 272
229 273
230 231
230 232
230 268
230 269
231 233
231 274
231 275
232 233
232 268
232 269
233 274
233 275
234 235
234 269
234 312
234 313
235 275
235 318
235 319
236 237
236 280
236 281
237 238
237 282
237 283
238 239
238 282
238 283
239 288
239 334
239 335
240 241
240 336
240 376
240 377
241 242
241 284
241 285
242 243
242 284
242 285
243 244
243 286
243 287
244 245
244 286
244 287
245 288
245 289
246 247
246 252
246 336
246 337
247 248
247 290
247 291
248 249
248 290
248 291
249 250
249 292
249 293
250 251
250 292
250 293
251 294
251 295
252 253
252 336
252 337
253 254
253 296
253 297
254 255
254 296
254 297
255 256
255 298
255 299
256 257
256 298
256 299
257 300
257 301
258 259
258 264
258 350
258 351
259 260
259 302
259 303
260 261
260 302
260 303
261 262
261 304
261 305
262 263
262 304
262 305
263 306
263 307
264 265
264 350
264 351
265 266
265 308
265 309
266 267
266 308
266 309
267 268
267 310
267 311
268 269
268 310
268 311
269 312
269 313
270 271
270 351
270 404
270 405
271 272
271 314
271 315
272 273
272 314
272 315
273 274
273 316
273 317
274 275
274 316
274 317
275 318
275 319
276 277
276 320
276 321
277 278
277 322
277 323
278 279
278 322
278 323
279 324
279 325
280 281
280 284
280 326
280 327
281 285
281 328
281 329
282 283
282 286
282 330
282 331
283 287
283 332
283 333
284 285
284 326
284 327
285 328
285 329
286 287
286 330
286 331
287 332
287 333
288 289
288 334
288 335
289 348
289 388
289 389
290 291
290 296
290 338
290 339
291 297
291 340
291 341
292 293
292 298
292 342
292 343
293 299
293 344
293 345
294 295
294 300
294 346
294 347
295 301
295 348
295 349
296 297
296 338
296 339
297 340
297 341
298 299
298 342
298 343
299 344
299 345
300 301
300 346
300 347
301 348
301 349
302 303
302 308
302 352
302 353
303 309
303 354
303 355
304 305
304 310
304 356
304 357
305 311
305 358
305 359
306 307
306 312
306 360
306 361
307 313
307 362
307 363
308 309
308 352
308 353
309 354
309 355
310 311
310 356
310 357
311 358
311 359
312 313
312 360
312 361
313 362
313 363
314 315
314 320
314 364
314 365
315 321
315 366
315 367
316 317
316 322
316 368
316 369
317 323
317 370
317 371
318 319
318 324
318 372
318 373
319 325
319 374
319 375
320 321
320 364
320 365
321 366
321 367
322 323
322 368
322 369
323 370
323 371
324 325
324 372
324 373
325 374
325 375
326 327
326 418
326 462
326 463
327 338
327 378
327 379
328 329
328 330
328 418
328 419
329 340
329 380
329 381
330 331
330 418
330 419
331 342
331 382
331 383
332 333
332 334
332 420
332 421
333 344
333 384
333 385
334 335
334 420
334 421
335 346
335 386
335 387
336 337
336 376
336 377
337 350
337 390
337 391
338 339
338 378
338 379
339 352
339 392
339 393
340 341
340 380
340 381
341 354
341 394
341 395
342 343
342 382
342 383
343 356
343 396
343 397
344 345
344 384
344 385
345 358
345 398
345 399
346 347
346 386
346 387
347 360
347 400
347 401
348 349
348 388
348 389
349 362
349 402
349 403
350 351
350 390
350 391
351 404
351 405
352 353
352 392
352 393
353 364
353 406
353 407
354 355
354 394
354 395
355 366
355 408
355 409
356 357
356 396
356 397
357 368
357 410
357 411
358 359
358 398
358 399
359 370
359 412
359 413
360 361
360 400
360 401
361 372
361 414
361 415
362 363
362 402
362 403
363 374
363 416
363 417
364 365
364 406
364 407
365 458
365 502
365 503
366 367
366 408
366 409
367 369
367 458
367 459
368 369
368 410
368 411
369 458
369 459
370 371
370 412
370 413
371 373
371 460
371 461
372 373
372 414
372 415
373 460
373 461
374 375
374 416
374 417
375 461
375 506
375 507
376 377
376 378
376 422
376 423
377 379
377 428
377 429
378 379
378 422
378 423
379 428
379 429
380 381
380 382
380 424
380 425
381 383
381 430
381 431
382 383
382 424
382 425
383 430
383 431
384 385
384 386
384 426
384 427
385 387
385 432
385 433
386 387
386 426
386 427
387 432
387 433
388 389
388 427
388 470
388 471
389 433
389 476
389 477
390 391
390 392
390 434
390 435
391 393
391 440
391 441
392 393
392 434
392 435
393 440
393 441
394 395
394 396
394 436
394 437
395 397
395 442
395 443
396 397
396 436
396 437
397 442
397 443
398 399
398 400
398 438
398 439
399 401
399 444
399 445
400 401
400 438
400 439
401 444
401 445
402 403
402 439
402 482
402 483
403 445
403 488
403 489
404 405
404 406
404 446
404 447
405 407
405 452
405 453
406 407
406 446
406 447
407 452
407 453
408 409
408 410
408 448
408 449
409 411
409 454
409 455
410 411
410 448
410 449
411 454
411 455
412 413
412 414
412 450
412 451
413 415
413 456
413 457
414 415
414 450
414 451
415 456
415 457
416 417
416 451
416 494
416 495
417 457
417 500
417 501
418 419
418 462
418 463
419 420
419 464
419 465
420 421
420 464
420 465
421 470
421 516
421 517
422 423
422 518
422 558
422 559
423 424
423 466
423 467
424 425
424 466
424 467
425 426
425 468
425 469
426 427
426 468
426 469
427 470
427 471
428 429
428 434
428 518
428 519
429 430
429 472
429 473
430 431
430 472
430 473
431 432
431 474
431 475
432 433
432 474
432 475
433 476
433 477
434 435
434 518
434 519
435 436
435 478
435 479
436 437
436 478
436 479
437 438
437 480
437 481
438 439
438 480
438 481
439 482
439 483
440 441
440 446
440 532
440 533
441 442
441 484
441 485
442 443
442 484
442 485
443 444
443 486
443 487
444 445
444 486
444 487
445 488
445 489
446 447
446 532
446 533
447 448
447 490
447 491
448 449
448 490
448 491
449 450
449 492
449 493
450 451
450 492
450 493
451 494
451 495
452 453
452 533
452 586
452 587
453 454
453 496
453 497
454 455
454 496
454 497
455 456
455 498
455 499
456 457
456 498
456 499
457 500
457 501
458 459
458 502
458 503
459 460
459 504
459 505
460 461
460 504
460 505
461 506
461 507
462 463
462 466
462 508
462 509
463 467
463 510
463 511
464 465
464 468
464 512
464 513
465 469
465 514
465 515
466 467
466 508
466 509
467 510
467 511
468 469
468 512
468 513
469 514
469 515
470 471
470 516
470 517
471 530
471 570
471 571
472 473
472 478
472 520
472 521
473 479
473 522
473 523
474 475
474 480
474 524
474 525
475 481
475 526
475 527
476 477
476 482
476 528
476 529
477 483
477 530
477 531
478 479
478 520
478 521
479 522
479 523
480 481
480 524
480 525
481 526
481 527
482 483
482 528
482 529
483 530
483 531
484 485
484 490
484 534
484 535
485 491
485 536
485 537
486 487
486 492
486 538
486 539
487 493
487 540
487 541
488 489
488 494
488 542
488 543
489 495
489 544
489 545
490 491
490 534
490 535
491 536
491 537
492 493
492 538
492 539
493 540
493 541
494 495
494 542
494 543
495 544
495 545
496 497
496 502
496 546
496 547
497 503
497 548
497 549
498 499
498 504
498 550
498 551
499 505
499 552
499 553
500 501
500 506
500 554
500 555
501 507
501 556
501 557
502 503
502 546
502 547
503 548
503 549
504 505
504 550
504 551
505 552
505 553
506 507
506 554
506 555
507 556
507 557
508 509
508 600
508 644
508 645
509 520
509 560
509 561
510 511
510 512
510 600
510 601
511 522
511 562
511 563
512 513
512 600
512 601
513 524
513 564
513 565
514 515
514 516
514 602
514 603
515 526
515 566
515 567
516 517
516 602
516 603
517 528
517 568
517 569
518 519
518 558
518 559
519 532
519 572
519 573
520 521
520 560
520 561
521 534
521 574
521 575
522 523
522 562
522 563
523 536
523 576
523 577
524 525
524 564
524 565
525 538
525 578
525 579
526 527
526 566
526 567
527 540
527 580
527 581
528 529
528 568
528 569
529 542
529 582
529 583
530 531
530 570
530 571
531 544
531 584
531 585
532 533
532 572
532 573
533 586
533 587
534 535
534 574
534 575
535 546
535 588
535 589
536 537
536 576
536 577
537 548
537 590
537 591
538 539
538 578
538 579
539 550
539 592
539 593
540 541
540 580
540 581
541 552
541 594
541 595
542 543
542 582
542 583
543 554
543 596
543 597
544 545
544 584
544 585
545 556
545 598
545 599
546 547
546 588
546 589
547 640
547 684
547 685
548 549
548 590
548 591
549 551
549 640
549 641
550 551
550 592
550 593
551 640
551 641
552 553
552 594
552 595
553 555
553 642
553 643
554 555
554 596
554 597
555 642
555 643
556 557
556 598
556 599
557 643
557 688
557 689
558 559
558 560
558 604
558 605
559 561
559 610
559 611
560 561
560 604
560 605
561 610
561 611
562 563
562 564
562 606
562 607
563 565
563 612
563 613
564 565
564 606
564 607
565 612
565 613
566 567
566 568
566 608
566 609
567 569
567 614
567 615
568 569
568 608
568 609
569 614
569 615
570 571
570 609
570 652
570 653
571 615
571 658
571 659
572 573
572 574
572 616
572 617
573 575
573 622
573 623
574 575
574 616
574 617
575 622
575 623
576 577
576 578
576 618
576 619
577 579
577 624
577 625
578 579
578 618
578 619
579 624
579 625
580 581
580 582
580 620
580 621
581 583
581 626
581 627
582 583
582 620
582 621
583 626
583 627
584 585
584 621
584 664
584 665
585 627
585 670
585 671
586 587
586 588
586 628
586 629
587 589
587 634
587 635
588 589
588 628
588 629
589 634
589 635
590 591
590 592
590 630
590 631
591 593
591 636
591 637
592 593
592 630
592 631
593 636
593 637
594 595
594 596
594 632
594 633
595 597
595 638
595 639
596 597
596 632
596 633
597 638
597 639
598 599
598 633
598 676
598 677
599 639
599 682
599 683
600 601
600 644
600 645
601 602
601 646
601 647
602 603
602 646
602 647
603 652
603 698
603 699
604 605
604 700
604 740
604 741
605 606
605 648
605 649
606 607
606 648
606 649
607 608
607 650
607 651
608 609
608 650
608 651
609 652
609 653
610 611
610 616
610 700
610 701
611 612
611 654
611 655
612 613
612 654
612 655
613 614
613 656
613 657
614 615
614 656
614 657
615 658
615 659
616 617
616 700
616 701
617 618
617 660
617 661
618 619
618 660
618 661
619 620
619 662
619 663
620 621
620 662
620 663
621 664
621 665
622 623
622 628
622 714
622 715
623 624
623 666
623 667
624 625
624 666
624 667
625 626
625 668
625 669
626 627
626 668
626 669
627 670
627 671
628 629
628 714
628 715
629 630
629 672
629 673
630 631
630 672
630 673
631 632
631 674
631 675
632 633
632 674
632 675
633 676
633 677
634 635
634 715
634 768
634 769
635 636
635 678
635 679
636 637
636 678
636 679
637 638
637 680
637 681
638 639
638 680
638 681
639 682
639 683
640 641
640 684
640 685
641 642
641 686
641 687
642 643
642 686
642 687
643 688
643 689
644 645
644 648
644 690
644 691
645 649
645 692
645 693
646 647
646 650
646 694
646 695
647 651
647 696
647 697
648 649
648 690
648 691
649 692
649 693
650 651
650 694
650 695
651 696
651 697
652 653
652 698
652 699
653 712
653 752
653 753
654 655
654 660
654 702
654 703
655 661
655 704
655 705
656 657
656 662
656 706
656 707
657 663
657 708
657 709
658 659
658 664
658 710
658 711
659 665
659 712
659 713
660 661
660 702
660 703
661 704
661 705
662 663
662 706
662 707
663 708
663 709
664 665
664 710
664 711
665 712
665 713
666 667
666 672
666 716
666 717
667 673
667 718
667 719
668 669
668 674
668 720
668 721
669 675
669 722
669 723
670 671
670 676
670 724
670 725
671 677
671 726
671 727
672 673
672 716
672 717
673 718
673 719
674 675
674 720
674 721
675 722
675 723
676 677
676 724
676 725
677 726
677 727
678 679
678 684
678 728
678 729
679 685
679 730
679 731
680 681
680 686
680 732
680 733
681 687
681 734
681 735
682 683
682 688
682 736
682 737
683 689
683 738
683 739
684 685
684 728
684 729
685 730
685 731
686 687
686 732
686 733
687 734
687 735
688 689
688 736
688 737
689 738
689 739
690 691
690 782
690 826
690 827
691 702
691 742
691 743
692 693
692 694
692 782
692 783
693 704
693 744
693 745
694 695
694 782
694 783
695 706
695 746
695 747
696 697
696 698
696 784
696 785
697 708
697 748
697 749
698 699
698 784
698 785
699 710
699 750
699 751
700 701
700 740
700 741
701 714
701 754
701 755
702 703
702 742
702 743
703 716
703 756
703 757
704 705
704 744
704 745
705 718
705 758
705 759
706 707
706 746
706 747
707 720
707 760
707 761
708 709
708 748
708 749
709 722
709 762
709 763
710 711
710 750
710 751
711 724
711 764
711 765
712 713
712 752
712 753
713 726
713 766
713 767
714 715
714 754
714 755
715 768
715 769
716 717
716 756
716 757
717 728
717 770
717 771
718 719
718 758
718 759
719 730
719 772
719 773
720 721
720 760
720 761
721 732
721 774
721 775
722 723
722 762
722 763
723 734
723 776
723 777
724 725
724 764
724 765
725 736
725 778
725 779
726 727
726 766
726 767
727 738
727 780
727 781
728 729
728 770
728 771
729 822
729 866
729 867
730 731
730 772
730 773
731 733
731 822
731 823
732 733
732 774
732 775
733 822
733 823
734 735
734 776
734 777
735 737
735 824
735 825
736 737
736 778
736 779
737 824
737 825
738 739
738 780
738 781
739 825
739 870
739 871
740 741
740 742
740 786
740 787
741 743
741 792
741 793
742 743
742 786
742 787
743 792
743 793
744 745
744 746
744 788
744 789
745 747
745 794
745 795
746 747
746 788
746 789
747 794
747 795
748 749
748 750
748 790
748 791
749 751
749 796
749 797
750 751
750 790
750 791
751 796
751 797
752 753
752 791
752 834
752 835
753 797
753 840
753 841
754 755
754 756
754 798
754 799
755 757
755 804
755 805
756 757
756 798
756 799
757 804
757 805
758 759
758 760
758 800
758 801
759 761
759 806
759 807
760 761
760 800
760 801
761 806
761 807
762 763
762 764
762 802
762 803
763 765
763 808
763 809
764 765
764 802
764 803
765 808
765 809
766 767
766 803
766 846
766 847
767 809
767 852
767 853
768 769
768 770
768 810
768 811
769 771
769 816
769 817
770 771
770 810
770 811
771 816
771 817
772 773
772 774
772 812
772 813
773 775
773 818
773 819
774 775
774 812
774 813
775 818
775 819
776 777
776 778
776 814
776 815
777 779
777 820
777 821
778 779
778 814
778 815
779 820
779 821
780 781
780 815
780 858
780 859
781 821
781 864
781 865
782 783
782 826
782 827
783 784
783 828
783 829
784 785
784 828
784 829
785 834
785 880
785 881
786 787
786 882
786 922
786 923
787 788
787 830
787 831
788 789
788 830
788 831
789 790
789 832
789 833
790 791
790 832
790 833
791 834
791 835
792 793
792 798
792 882
792 883
793 794
793 836
793 837
794 795
794 836
794 837
795 796
795 838
795 839
796 797
796 838
796 839
797 840
797 841
798 799
798 882
798 883
799 800
799 842
799 843
800 801
800 842
800 843
801 802
801 844
801 845
802 803
802 844
802 845
803 846
803 847
804 805
804 810
804 896
804 897
805 806
805 848
805 849
806 807
806 848
806 849
807 808
807 850
807 851
808 809
808 850
808 851
809 852
809 853
810 811
810 896
810 897
811 812
811 854
811 855
812 813
812 854
812 855
813 814
813 856
813 857
814 815
814 856
814 857
815 858
815 859
816 817
816 897
816 950
816 951
817 818
817 860
817 861
818 819
818 860
818 861
819 820
819 862
819 863
820 821
820 862
820 863
821 864
821 865
822 823
822 866
822 867
823 824
823 868
823 869
824 825
824 868
824 869
825 870
825 871
826 827
826 830
826 872
826 873
827 831
827 874
827 875
828 829
828 832
828 876
828 877
829 833
829 878
829 879
830 831
830 872
830 873
831 874
831 875
832 833
832 876
832 877
833 878
833 879
834 835
834 880
834 881
835 894
835 934
835 935
836 837
836 842
836 884
836 885
837 843
837 886
837 887
838 839
838 844
838 888
838 889
839 845
839 890
839 891
840 841
840 846
840 892
840 893
841 847
841 894
841 895
842 843
842 884
842 885
843 886
843 887
844 845
844 888
844 889
845 890
845 891
846 847
846 892
846 893
847 894
847 895
848 849
848 854
848 898
848 899
849 855
849 900
849 901
850 851
850 856
850 902
850 903
851 857
851 904
851 905
852 853
852 858
852 906
852 907
853 859
853 908
853 909
854 855
854 898
854 899
855 900
855 901
856 857
856 902
856 903
857 904
857 905
858 859
858 906
858 907
859 908
859 909
860 861
860 866
860 910
860 911
861 867
861 912
861 913
862 863
862 868
862 914
862 915
863 869
863 916
863 917
864 865
864 870
864 918
864 919
865 871
865 920
865 921
866 867
866 910
866 911
867 912
867 913
868 869
868 914
868 915
869 916
869 917
870 871
870 918
870 919
871 920
871 921
872 873
873 884
873 924
873 925
874 875
875 886
875 926
875 927
876 877
877 888
877 928
877 929
878 879
879 890
879 930
879 931
880 881
881 892
881 932
881 933
882 883
882 922
882 923
883 896
883 936
883 937
884 885
884 924
884 925
885 898
885 938
885 939
886 887
886 926
886 927
887 900
887 940
887 941
888 889
888 928
888 929
889 902
889 942
889 943
890 891
890 930
890 931
891 904
891 944
891 945
892 893
892 932
892 933
893 906
893 946
893 947
894 895
894 934
894 935
895 908
895 948
895 949
896 897
896 936
896 937
897 950
897 951
898 899
898 938
898 939
899 910
899 952
899 953
900 901
900 940
900 941
901 912
901 954
901 955
902 903
902 942
902 943
903 914
903 956
903 957
904 905
904 944
904 945
905 916
905 958
905 959
906 907
906 946
906 947
907 918
907 960
907 961
908 909
908 948
908 949
909 920
909 962
909 963
910 911
910 952
910 953
912 913
912 954
912 955
914 915
914 956
914 957
916 917
916 958
916 959
918 919
918 960
918 961
920 921
920 962
920 963
922 923
924 925
926 927
928 929
930 931
932 933
934 935
936 937
938 939
940 941
942 943
944 945
946 947
948 949
950 951
952 953
954 955
956 957
958 959
960 961
962 963
