p tw 55 364
1 2
1 3
1 6
1 9
1 10
1 11
1 13
1 16
1 19
1 20
1 21
1 23
1 24
1 26
1 27
1 28
1 29
1 32
1 33
1 35
1 37
1 38
1 43
1 49
1 51
1 52
1 53
2 3
2 4
2 5
2 6
2 7
2 8
2 9
2 10
2 11
2 12
2 13
2 14
2 15
2 16
2 17
2 18
2 23
2 27
2 32
2 34
2 37
3 4
3 5
3 6
3 8
3 10
3 19
3 20
3 21
3 22
3 26
3 30
4 5
4 6
4 7
4 8
4 9
4 10
4 11
4 12
4 14
4 15
4 24
5 7
5 8
5 10
5 12
5 13
5 14
5 15
5 18
5 21
5 22
5 23
5 25
5 28
5 29
5 31
5 33
5 34
5 45
6 8
6 9
6 13
6 14
6 15
6 17
6 18
6 19
6 20
6 25
6 29
7 8
7 9
7 12
7 14
7 18
7 24
7 25
8 11
8 12
8 17
8 18
8 21
8 24
8 31
9 16
9 19
9 20
9 23
9 25
9 29
9 32
9 33
9 34
9 38
9 39
9 43
9 45
9 54
10 23
10 26
10 32
10 35
10 37
10 38
10 42
10 49
11 12
11 21
11 24
11 30
11 36
11 37
11 38
11 39
11 43
11 46
12 15
12 21
12 31
12 34
12 35
12 44
12 47
12 48
12 49
12 52
13 16
13 17
13 19
13 22
13 24
13 28
13 29
13 30
13 32
13 35
13 41
14 15
14 16
14 17
14 18
14 24
14 31
14 33
14 34
14 40
15 25
15 34
15 40
15 52
16 17
16 19
16 23
16 29
16 33
16 38
16 39
16 41
16 49
16 50
17 18
17 20
17 22
17 23
17 29
17 33
17 35
17 37
17 40
17 43
18 22
18 33
18 34
18 45
19 20
19 26
19 29
19 32
19 41
19 43
19 49
19 55
20 22
20 25
20 27
20 29
20 33
20 34
20 39
20 50
20 52
20 54
20 55
21 24
21 26
21 28
21 30
21 31
21 35
21 37
21 44
21 49
21 51
21 52
22 39
23 25
23 26
23 29
23 33
23 38
23 41
23 49
23 51
24 28
24 30
24 31
24 38
24 48
25 36
25 39
25 47
26 28
26 32
26 35
26 37
26 42
26 49
26 51
26 53
27 28
27 35
27 36
28 29
28 36
28 37
28 38
29 32
29 33
29 39
29 41
29 43
29 54
29 55
30 31
30 40
30 44
31 33
31 37
31 40
31 48
31 51
32 35
32 38
32 41
32 49
32 54
33 34
33 40
33 41
33 43
33 45
33 50
33 54
34 42
34 43
34 44
34 45
34 52
34 54
35 40
35 41
35 42
35 43
35 49
35 51
35 53
36 37
36 43
36 45
36 47
36 48
37 38
37 42
37 48
37 51
38 42
38 43
38 46
38 48
38 49
38 55
39 43
39 46
39 50
40 44
40 45
40 52
40 53
41 43
41 48
41 50
41 54
42 43
42 47
42 48
42 49
42 50
42 52
42 53
42 54
43 46
43 48
43 50
43 54
43 55
44 55
45 46
45 47
45 53
45 54
46 48
46 51
46 53
47 52
47 54
48 49
48 50
48 52
49 51
49 52
49 55
51 53
52 53
52 55
54 55
